;; sequence(s): A139734
;; terms: 0 1 1 1 37 127 541 1036 3799 5185 51850 164206 224884 1185958 3887965 5398867 10941949 66372769 276307201 438549076
;; small program: loop(2 * ((2 * (x + x)) + x), x, 1) mod loop((x + x) + x, x, 1)
;; fast program: (loop(x + x, x mod 2, loop(x * x, 1, loop(x + x, x div 2, 1))) * loop2(x * y, y, x div 2, loop(1 + (2 + 2), x mod 2, 1), loop(x * x, 1, 1 + (2 + 2)))) mod loop2(x * y, y, x div 2, loop(1 + 2, x mod 2, 1), 1 + (2 * (2 + 2)))
(set-logic UFNIA)
(define-fun divf ((a Int) (b Int)) Int (ite (< 0 b) (div a b) (div (- a) (- b))))
(define-fun modf ((a Int) (b Int)) Int (ite (< 0 b) (mod a b) (- (mod (- a) (- b)))))
(declare-fun f0 (Int) Int)
(declare-fun g0 (Int) Int)
(declare-fun h0 () Int)
(declare-fun u0 (Int Int) Int)
(declare-fun v0 (Int) Int)
(declare-fun f1 (Int) Int)
(declare-fun g1 (Int) Int)
(declare-fun h1 () Int)
(declare-fun u1 (Int Int) Int)
(declare-fun v1 (Int) Int)
(declare-fun small (Int) Int)
(declare-fun f2 (Int) Int)
(declare-fun g2 (Int) Int)
(declare-fun f3 (Int) Int)
(declare-fun g3 () Int)
(declare-fun f4 (Int) Int)
(declare-fun g4 (Int) Int)
(declare-fun h4 () Int)
(declare-fun u4 (Int Int) Int)
(declare-fun v4 (Int) Int)
(declare-fun h3 (Int) Int)
(declare-fun u3 (Int Int) Int)
(declare-fun v3 (Int) Int)
(declare-fun h2 (Int) Int)
(declare-fun u2 (Int Int) Int)
(declare-fun v2 (Int) Int)
(declare-fun f5 (Int Int) Int)
(declare-fun g5 (Int Int) Int)
(declare-fun h5 (Int) Int)
(declare-fun f6 () Int)
(declare-fun g6 (Int) Int)
(declare-fun h6 () Int)
(declare-fun u6 (Int Int) Int)
(declare-fun v6 (Int) Int)
(declare-fun i5 (Int) Int)
(declare-fun f7 (Int) Int)
(declare-fun g7 () Int)
(declare-fun h7 () Int)
(declare-fun u7 (Int Int) Int)
(declare-fun v7 () Int)
(declare-fun j5 () Int)
(declare-fun u5 (Int Int Int) Int)
(declare-fun v5 (Int Int Int) Int)
(declare-fun w5 (Int) Int)
(declare-fun f8 (Int Int) Int)
(declare-fun g8 (Int Int) Int)
(declare-fun h8 (Int) Int)
(declare-fun f9 () Int)
(declare-fun g9 (Int) Int)
(declare-fun h9 () Int)
(declare-fun u9 (Int Int) Int)
(declare-fun v9 (Int) Int)
(declare-fun i8 (Int) Int)
(declare-fun j8 () Int)
(declare-fun u8 (Int Int Int) Int)
(declare-fun v8 (Int Int Int) Int)
(declare-fun w8 (Int) Int)
(declare-fun fast (Int) Int)
(assert (forall ((x Int)) (= (f0 x) (* 2 (+ (* 2 (+ x x)) x)))))
(assert (forall ((x Int)) (= (g0 x) x)))
(assert (= h0 1))
(assert (forall ((x Int) (y Int)) (= (u0 x y) (ite (<= x 0) y (f0 (u0 (- x 1) y))))))
(assert (forall ((x Int)) (= (v0 x) (u0 (g0 x) h0))))
(assert (forall ((x Int)) (= (f1 x) (+ (+ x x) x))))
(assert (forall ((x Int)) (= (g1 x) x)))
(assert (= h1 1))
(assert (forall ((x Int) (y Int)) (= (u1 x y) (ite (<= x 0) y (f1 (u1 (- x 1) y))))))
(assert (forall ((x Int)) (= (v1 x) (u1 (g1 x) h1))))
(assert (forall ((x Int)) (= (small x) (modf (v0 x) (v1 x)))))
(assert (forall ((x Int)) (= (f2 x) (+ x x))))
(assert (forall ((x Int)) (= (g2 x) (modf x 2))))
(assert (forall ((x Int)) (= (f3 x) (* x x))))
(assert (= g3 1))
(assert (forall ((x Int)) (= (f4 x) (+ x x))))
(assert (forall ((x Int)) (= (g4 x) (divf x 2))))
(assert (= h4 1))
(assert (forall ((x Int) (y Int)) (= (u4 x y) (ite (<= x 0) y (f4 (u4 (- x 1) y))))))
(assert (forall ((x Int)) (= (v4 x) (u4 (g4 x) h4))))
(assert (forall ((x Int)) (= (h3 x) (v4 x))))
(assert (forall ((x Int) (y Int)) (= (u3 x y) (ite (<= x 0) y (f3 (u3 (- x 1) y))))))
(assert (forall ((x Int)) (= (v3 x) (u3 g3 (h3 x)))))
(assert (forall ((x Int)) (= (h2 x) (v3 x))))
(assert (forall ((x Int) (y Int)) (= (u2 x y) (ite (<= x 0) y (f2 (u2 (- x 1) y))))))
(assert (forall ((x Int)) (= (v2 x) (u2 (g2 x) (h2 x)))))
(assert (forall ((x Int) (y Int)) (= (f5 x y) (* x y))))
(assert (forall ((x Int) (y Int)) (= (g5 x y) y)))
(assert (forall ((x Int)) (= (h5 x) (divf x 2))))
(assert (= f6 (+ 1 (+ 2 2))))
(assert (forall ((x Int)) (= (g6 x) (modf x 2))))
(assert (= h6 1))
(assert (forall ((x Int) (y Int)) (= (u6 x y) (ite (<= x 0) y f6))))
(assert (forall ((x Int)) (= (v6 x) (u6 (g6 x) h6))))
(assert (forall ((x Int)) (= (i5 x) (v6 x))))
(assert (forall ((x Int)) (= (f7 x) (* x x))))
(assert (= g7 1))
(assert (= h7 (+ 1 (+ 2 2))))
(assert (forall ((x Int) (y Int)) (= (u7 x y) (ite (<= x 0) y (f7 (u7 (- x 1) y))))))
(assert (= v7 (u7 g7 h7)))
(assert (= j5 v7))
(assert (forall ((x Int) (y Int) (z Int)) (= (u5 x y z) (ite (<= x 0) y (f5 (u5 (- x 1) y z) (v5 (- x 1) y z))))))
(assert (forall ((x Int) (y Int) (z Int)) (= (v5 x y z) (ite (<= x 0) z (g5 (u5 (- x 1) y z) (v5 (- x 1) y z))))))
(assert (forall ((x Int)) (= (w5 x) (u5 (h5 x) (i5 x) j5))))
(assert (forall ((x Int) (y Int)) (= (f8 x y) (* x y))))
(assert (forall ((x Int) (y Int)) (= (g8 x y) y)))
(assert (forall ((x Int)) (= (h8 x) (divf x 2))))
(assert (= f9 (+ 1 2)))
(assert (forall ((x Int)) (= (g9 x) (modf x 2))))
(assert (= h9 1))
(assert (forall ((x Int) (y Int)) (= (u9 x y) (ite (<= x 0) y f9))))
(assert (forall ((x Int)) (= (v9 x) (u9 (g9 x) h9))))
(assert (forall ((x Int)) (= (i8 x) (v9 x))))
(assert (= j8 (+ 1 (* 2 (+ 2 2)))))
(assert (forall ((x Int) (y Int) (z Int)) (= (u8 x y z) (ite (<= x 0) y (f8 (u8 (- x 1) y z) (v8 (- x 1) y z))))))
(assert (forall ((x Int) (y Int) (z Int)) (= (v8 x y z) (ite (<= x 0) z (g8 (u8 (- x 1) y z) (v8 (- x 1) y z))))))
(assert (forall ((x Int)) (= (w8 x) (u8 (h8 x) (i8 x) j8))))
(assert (forall ((x Int)) (= (fast x) (modf (* (v2 x) (w5 x)) (w8 x)))))
(assert (exists ((c Int)) (and (>= c 0) (not (= (small c) (fast c))))))
(check-sat)
